
Gurobi 10.0.3 (linux64, gurobi_cl) logging started Thu Nov  9 11:49:06 2023

Set parameter Username
Set parameter TimeLimit to value 3600
Set parameter LogFile to value "RCPSP_1222.log"
Set parameter Threads to value 32
Academic license - for non-commercial use only - expires 2024-10-30
Using license file /home/jrivera6/gurobi-licenses/v1003/compute-0-37/gurobi.lic

Gurobi Optimizer version 10.0.3 build v10.0.3rc0 (linux64)
Copyright (c) 2023, Gurobi Optimization, LLC

Read MPS format model from file RCPSP_1222.mps
Reading time = 0.05 seconds
RCPSP_1222: 42947 rows, 17020 columns, 151052 nonzeros

CPU model: Intel(R) Xeon(R) Gold 6242 CPU @ 2.80GHz, instruction set [SSE2|AVX|AVX2|AVX512]
Thread count: 32 physical cores, 32 logical processors, using up to 32 threads

Optimize a model with 42947 rows, 17020 columns and 151052 nonzeros
Model fingerprint: 0xb32d5309
Variable types: 92 continuous, 16928 integer (16928 binary)
Coefficient statistics:
  Matrix range     [1e+00, 5e+02]
  Objective range  [1e+00, 1e+00]
  Bounds range     [1e+00, 1e+00]
  RHS range        [1e+00, 6e+02]
Presolve removed 7694 rows and 1863 columns
Presolve time: 3.56s
Presolved: 35253 rows, 15157 columns, 129854 nonzeros
Variable types: 91 continuous, 15066 integer (15066 binary)

Deterministic concurrent LP optimizer: primal and dual simplex (primal and dual model)
Showing first log only...

Root relaxation presolved: 35253 rows, 15157 columns, 129854 nonzeros


Root simplex log...

Iteration    Objective       Primal Inf.    Dual Inf.      Time
    2017    8.3000000e+01   0.000000e+00   3.112500e+01      5s
    2064    8.1000000e+01   0.000000e+00   0.000000e+00      5s
Concurrent spin time: 0.34s

Solved with dual simplex (primal model)

Root relaxation: objective 8.100000e+01, 5317 iterations, 1.67 seconds (0.12 work units)

    Nodes    |    Current Node    |     Objective Bounds      |     Work
 Expl Unexpl |  Obj  Depth IntInf | Incumbent    BestBd   Gap | It/Node Time

     0     0   81.00000    0   29          -   81.00000      -     -    8s
     0     0   81.00000    0  313          -   81.00000      -     -   19s
     0     0   81.00000    0  374          -   81.00000      -     -   20s
H    0     0                      81.0000000   81.00000  0.00%     -   24s
     0     0   81.00000    0    8   81.00000   81.00000  0.00%     -   24s

Cutting planes:
  Gomory: 41
  Lift-and-project: 7
  Cover: 2
  Implied bound: 44
  MIR: 491
  StrongCG: 2
  RLT: 402
  Relax-and-lift: 44
  PSD: 1

Explored 1 nodes (17204 simplex iterations) in 24.94 seconds (5.05 work units)
Thread count was 32 (of 32 available processors)

Solution count 1: 81 

Optimal solution found (tolerance 1.00e-04)
Best objective 8.100000000000e+01, best bound 8.100000000000e+01, gap 0.0000%

Wrote result file 'RCPSP_1222.sol'

